study/farce-uclibc/output/TypeErrors/DimacsConstraints/constraint_606.dimacs
c 4 __UCLIBC_HAS_CRYPT__
c 1 __UCLIBC_HAS_THREADS_NATIVE__
c 2 __UCLIBC_HAS_XLOCALE__
c 5 __UCLIBC_HAS_LOCALE__
c 3 __UCLIBC_HAS_THREADS__
c 6 __UCLIBC_HAS_SHA256_CRYPT_IMPL__
p cnf 6 1
-2 -3 -1 5 -6 -4 1
